32	0

0	1	2
8	1	3
7	2	4	5
8	1	6
1	1	6
1	1	7
10	1	8
3	1	9
6	1	10
1	1	11
1	1	12
2	1	13
6	1	14
5	1	15
7	1	16
3	1	17
5	1	18
8	1	19
10	1	20
1	1	21
1	1	22
10	1	23
3	1	24
3	1	25
7	1	26
6	1	27
1	1	28
3	1	29
1	1	30
1	1	31
1	1	32
0	0
